networks/zoo_64_595/zoo_64_595.txt
Number of groups: 37.999999999995737
Flow 4: {1 8} {8 40} 
Flow 6: {1 4} {4 23} {23 55} 
Flow 32: {2 23} {23 27} {27 26} {26 58} 
Flow 36: {32 30} {30 62} 
Flow 53: {3 4} {4 24} {24 56} 
Flow 55: {3 23} {23 28} {28 60} 
Flow 78: {8 16} {16 22} {22 54} 
Flow 81: {27 25} {25 57} 
Flow 97: {6 9} {9 10} 
Flow 100: {5 6} {6 18} {18 17} {17 15} {15 47} 
Flow 132: {7 8} {8 1} {1 33} 
Flow 145: {7 2} {2 19} {19 51} 
Flow 180: {9 6} {6 5} {5 8} {8 7} {7 39} 
Flow 205: {10 9} {9 41} 
Flow 207: {10 18} {18 16} {16 48} 
Flow 235: {11 32} {32 31} 
Flow 239: {12 16} {16 8} {8 4} {4 3} 
Flow 259: {13 32} {32 2} {2 4} {4 36} 
Flow 274: {14 2} {2 20} {20 52} 
Flow 292: {15 17} {17 49} 
Flow 335: {17 18} {18 6} {6 12} {12 44} 
Flow 374: {20 2} {2 34} 
Flow 400: {21 16} {16 18} {18 10} {10 42} 
Flow 414: {22 16} {16 12} {12 6} {6 38} 
Flow 431: {23 2} {2 14} {14 46} 
Flow 445: {4 1} 
Flow 460: {24 27} {27 59} 
Flow 464: {24 4} {4 2} {2 32} {32 64} 
Flow 465: {26 27} {27 23} {23 4} {4 8} 
Flow 484: {18 50} 
Flow 489: {27 24} 
Flow 501: {8 5} {5 37} 
Flow 509: {30 32} {32 13} {13 45} 
Flow 539: {29 28} {28 30} {30 31} {31 63} 
Flow 551: {28 23} {23 3} {3 35} 
Flow 554: {2 7} 
Flow 558: {31 32} {32 11} {11 43} 
Flow 570: {31 30} {30 28} {28 29} {29 61} 
Time taken running everything: 14 seconds
