networks/zoo_64_595/standard/zoo_64_595.sol
<?xml version = "1.0" encoding="UTF-8" standalone="yes"?>
<CPLEXSolution version="1.2">
 <header
   problemName="networks/zoo_64_595/zoo_64_595.lp"
   solutionName="incumbent"
   solutionIndex="-1"
   objectiveValue="37.999999999995737"
   solutionTypeValue="3"
   solutionTypeString="primal"
   solutionStatusValue="101"
   solutionStatusString="integer optimal solution"
   solutionMethodString="mip"
   primalFeasible="1"
   dualFeasible="1"
   MIPNodes="0"
   MIPIterations="20277"
   writeLevel="3"/>
 <quality
   epInt="1.0000000000000001e-05"
   epRHS="9.9999999999999995e-07"
   maxIntInfeas="1.2898367929281562e-09"
   maxPrimalInfeas="6.4491840513186387e-09"
   maxX="4.0000000002019593"
   maxSlack="10.000000000201959"/>
 <variables>
  <variable name="Y(3,6)" index="131" value="1.5543122344752192e-14"/>
  <variable name="Y(4,8)" index="196" value="0.9999999998963528"/>
  <variable name="Y(5,17)" index="268" value="1.036472019322332e-10"/>
  <variable name="Y(6,23)" index="337" value="1"/>
  <variable name="Y(7,4)" index="381" value="-1.9563577328336604e-10"/>
  <variable name="Y(9,4)" index="507" value="4.890894332084151e-11"/>
  <variable name="Y(32,26)" index="1978" value="1"/>
  <variable name="Y(36,30)" index="2234" value="1"/>
  <variable name="Y(53,24)" index="3299" value="1"/>
  <variable name="Y(55,28)" index="3429" value="1"/>
  <variable name="Y(78,22)" index="4872" value="1"/>
  <variable name="Y(81,25)" index="5064" value="1"/>
  <variable name="Y(97,9)" index="6056" value="1"/>
  <variable name="Y(100,15)" index="6251" value="1"/>
  <variable name="Y(103,19)" index="6444" value="1.6828589183014449e-11"/>
  <variable name="Y(132,1)" index="8253" value="1"/>
  <variable name="Y(142,15)" index="8897" value="8.0612353494631932e-11"/>
  <variable name="Y(143,16)" index="8961" value="-3.4546177430417677e-11"/>
  <variable name="Y(145,19)" index="9090" value="1"/>
  <variable name="Y(147,23)" index="9220" value="2.7627231682597648e-10"/>
  <variable name="Y(180,7)" index="11283" value="1.0000000000504898"/>
  <variable name="Y(181,8)" index="11347" value="-2.2088609288540931e-11"/>
  <variable name="Y(196,5)" index="12289" value="-6.3110715401468897e-12"/>
  <variable name="Y(196,8)" index="12292" value="1.5777678850367226e-12"/>
  <variable name="Y(203,7)" index="12732" value="1.3819334626602839e-10"/>
  <variable name="Y(205,9)" index="12860" value="1"/>
  <variable name="Y(206,15)" index="12929" value="-9.2128897510685515e-11"/>
  <variable name="Y(207,16)" index="12993" value="1"/>
  <variable name="Y(235,32)" index="14773" value="1"/>
  <variable name="Y(239,4)" index="14997" value="1"/>
  <variable name="Y(259,4)" index="16257" value="0.99999999973958209"/>
  <variable name="Y(260,2)" index="16318" value="4.3044088531747882e-11"/>
  <variable name="Y(260,32)" index="16348" value="5.7392404997181628e-11"/>
  <variable name="Y(261,23)" index="16402" value="3.0848267027209683e-11"/>
  <variable name="Y(274,20)" index="17218" value="1"/>
  <variable name="Y(290,18)" index="18224" value="6.2187437646930688e-11"/>
  <variable name="Y(291,16)" index="18285" value="-1.8425779502137139e-10"/>
  <variable name="Y(292,17)" index="18349" value="0.9999999998963528"/>
  <variable name="Y(306,6)" index="19220" value="-1.6822146025563194e-11"/>
  <variable name="Y(335,12)" index="21053" value="1"/>
  <variable name="Y(339,19)" index="21312" value="-1.6828589183014449e-11"/>
  <variable name="Y(374,2)" index="23500" value="1"/>
  <variable name="Y(379,8)" index="23821" value="1.2573577812415154e-10"/>
  <variable name="Y(383,16)" index="24081" value="2.1880397245178904e-10"/>
  <variable name="Y(385,23)" index="24214" value="-2.1738190517071998e-10"/>
  <variable name="Y(395,4)" index="24825" value="2.604178870159362e-10"/>
  <variable name="Y(396,6)" index="24890" value="-1.3463017373384131e-10"/>
  <variable name="Y(397,7)" index="24954" value="-1.8868314223025067e-10"/>
  <variable name="Y(400,10)" index="25146" value="1"/>
  <variable name="Y(414,6)" index="26024" value="1.0000000001514366"/>
  <variable name="Y(416,23)" index="26167" value="-8.973867868246617e-11"/>
  <variable name="Y(417,23)" index="26230" value="-1.5424413460088718e-11"/>
  <variable name="Y(431,14)" index="27103" value="1"/>
  <variable name="Y(445,4)" index="27975" value="1"/>
  <variable name="Y(454,15)" index="28553" value="1.1516544016053569e-11"/>
  <variable name="Y(460,27)" index="28943" value="1"/>
  <variable name="Y(464,32)" index="29200" value="1"/>
  <variable name="Y(465,4)" index="29235" value="1"/>
  <variable name="Y(484,18)" index="30446" value="1"/>
  <variable name="Y(489,27)" index="30770" value="1"/>
  <variable name="Y(501,5)" index="31504" value="1"/>
  <variable name="Y(509,13)" index="32016" value="1"/>
  <variable name="Y(539,31)" index="33924" value="1"/>
  <variable name="Y(551,3)" index="34652" value="1"/>
  <variable name="Y(554,2)" index="34840" value="1"/>
  <variable name="Y(558,11)" index="35101" value="1"/>
  <variable name="Y(570,29)" index="35875" value="1"/>
  <variable name="X(1,4,6)" index="37490" value="1"/>
  <variable name="X(1,4,7)" index="37491" value="-1.9563577328336604e-10"/>
  <variable name="X(1,4,9)" index="37493" value="1.9563577328336604e-10"/>
  <variable name="X(1,8,4)" index="38083" value="0.9999999998963528"/>
  <variable name="X(1,8,5)" index="38084" value="1.0364716883561061e-10"/>
  <variable name="X(1,33,132)" index="38806" value="1"/>
  <variable name="X(2,4,259)" index="39528" value="0.99999999973958209"/>
  <variable name="X(2,4,260)" index="39529" value="4.3043227667194527e-11"/>
  <variable name="X(2,4,379)" index="39648" value="9.4299476106211007e-11"/>
  <variable name="X(2,4,383)" index="39652" value="1.2307518324253072e-10"/>
  <variable name="X(2,7,554)" index="40418" value="1"/>
  <variable name="X(2,14,431)" index="40890" value="1"/>
  <variable name="X(2,19,103)" index="41157" value="1.6828589183014449e-11"/>
  <variable name="X(2,19,145)" index="41199" value="1"/>
  <variable name="X(2,19,339)" index="41393" value="-1.6828589183014449e-11"/>
  <variable name="X(2,20,274)" index="41923" value="1"/>
  <variable name="X(2,23,32)" index="42276" value="0.99999999908144432"/>
  <variable name="X(2,23,147)" index="42391" value="1.1050892673039059e-09"/>
  <variable name="X(2,23,261)" index="42505" value="3.0848267027209696e-11"/>
  <variable name="X(2,23,385)" index="42629" value="-2.1738190517071998e-10"/>
  <variable name="X(2,32,464)" index="43303" value="1"/>
  <variable name="X(2,34,374)" index="43808" value="1"/>
  <variable name="X(3,4,53)" index="44082" value="1"/>
  <variable name="X(3,23,55)" index="44679" value="1"/>
  <variable name="X(3,35,551)" index="45770" value="1"/>
  <variable name="X(4,1,445)" index="46259" value="1"/>
  <variable name="X(4,2,9)" index="46418" value="4.890894332084151e-11"/>
  <variable name="X(4,2,103)" index="46512" value="1.2621126359101859e-11"/>
  <variable name="X(4,2,318)" index="46727" value="-5.143312265047724e-11"/>
  <variable name="X(4,2,339)" index="46748" value="-1.0096951570777251e-11"/>
  <variable name="X(4,2,464)" index="46873" value="1"/>
  <variable name="X(4,3,239)" index="47243" value="1"/>
  <variable name="X(4,8,78)" index="47677" value="1.000000082740371e-09"/>
  <variable name="X(4,8,379)" index="47978" value="1.2573577812415154e-10"/>
  <variable name="X(4,8,383)" index="47982" value="1.6409887686692011e-10"/>
  <variable name="X(4,8,465)" index="48064" value="1"/>
  <variable name="X(4,8,563)" index="48162" value="-1.2898368102637277e-09"/>
  <variable name="X(4,23,6)" index="48200" value="1"/>
  <variable name="X(4,23,7)" index="48201" value="-7.8254309313346416e-10"/>
  <variable name="X(4,23,81)" index="48275" value="9.3397973413838476e-10"/>
  <variable name="X(4,23,416)" index="48610" value="-8.973867868246617e-11"/>
  <variable name="X(4,23,417)" index="48611" value="-6.1697962322454432e-11"/>
  <variable name="X(4,24,53)" index="48842" value="1"/>
  <variable name="X(4,36,259)" index="49643" value="0.99999999973958209"/>
  <variable name="X(4,36,395)" index="49779" value="2.604178870159362e-10"/>
  <variable name="X(5,6,100)" index="50079" value="1"/>
  <variable name="X(5,8,103)" index="50677" value="3.7864641189941487e-11"/>
  <variable name="X(5,8,180)" index="50754" value="1.0000000000504898"/>
  <variable name="X(5,8,181)" index="50755" value="-8.8354437154163725e-11"/>
  <variable name="X(5,37,501)" index="51670" value="1"/>
  <variable name="X(6,5,178)" index="51942" value="2.5244286160587562e-11"/>
  <variable name="X(6,5,180)" index="51944" value="1"/>
  <variable name="X(6,5,196)" index="51960" value="-2.5244286160587562e-11"/>
  <variable name="X(6,9,97)" index="52456" value="1"/>
  <variable name="X(6,12,335)" index="53289" value="1"/>
  <variable name="X(6,18,100)" index="53649" value="1"/>
  <variable name="X(6,38,3)" index="54147" value="1.5543122344752192e-14"/>
  <variable name="X(6,38,306)" index="54450" value="-1.6822146025563194e-11"/>
  <variable name="X(6,38,396)" index="54540" value="-1.3463017373384131e-10"/>
  <variable name="X(6,38,414)" index="54558" value="1.0000000001514366"/>
  <variable name="X(7,2,145)" index="54884" value="1"/>
  <variable name="X(7,8,132)" index="55466" value="1"/>
  <variable name="X(7,8,142)" index="55476" value="3.4546177430417677e-11"/>
  <variable name="X(7,8,143)" index="55477" value="-3.4546177430417677e-11"/>
  <variable name="X(7,39,180)" index="56109" value="1.0000000000504898"/>
  <variable name="X(7,39,203)" index="56132" value="1.3819334626602839e-10"/>
  <variable name="X(7,39,397)" index="56326" value="-1.8868314223025067e-10"/>
  <variable name="X(8,1,132)" index="56656" value="1"/>
  <variable name="X(8,4,196)" index="57315" value="1.5777678850367226e-12"/>
  <variable name="X(8,4,239)" index="57358" value="1"/>
  <variable name="X(8,4,318)" index="57437" value="-1.5430451126369675e-10"/>
  <variable name="X(8,4,339)" index="57458" value="-4.0388815978266098e-11"/>
  <variable name="X(8,4,395)" index="57514" value="2.604178870159362e-10"/>
  <variable name="X(8,4,416)" index="57535" value="-6.7302326453688289e-11"/>
  <variable name="X(8,5,501)" index="58215" value="1"/>
  <variable name="X(8,7,180)" index="58489" value="1.0000000000504898"/>
  <variable name="X(8,7,203)" index="58512" value="1.3819334626602839e-10"/>
  <variable name="X(8,7,397)" index="58706" value="-1.8868314223025067e-10"/>
  <variable name="X(8,16,5)" index="58909" value="1.0364716883561061e-10"/>
  <variable name="X(8,16,78)" index="58982" value="1"/>
  <variable name="X(8,16,142)" index="59046" value="3.4546177430417677e-11"/>
  <variable name="X(8,16,143)" index="59047" value="-3.4546177430417677e-11"/>
  <variable name="X(8,16,383)" index="59287" value="2.1880397245178904e-10"/>
  <variable name="X(8,16,563)" index="59467" value="-3.2245114128739963e-10"/>
  <variable name="X(8,40,4)" index="59503" value="0.9999999998963528"/>
  <variable name="X(8,40,181)" index="59680" value="-2.2088609288540931e-11"/>
  <variable name="X(8,40,379)" index="59878" value="1.2573577812415154e-10"/>
  <variable name="X(9,6,180)" index="60274" value="1.0000000001009797"/>
  <variable name="X(9,6,196)" index="60290" value="-1.0097966907096634e-10"/>
  <variable name="X(9,10,97)" index="60786" value="1"/>
  <variable name="X(9,41,205)" index="61489" value="1"/>
  <variable name="X(10,9,205)" index="62084" value="1"/>
  <variable name="X(10,18,203)" index="62677" value="1.3819334626602829e-10"/>
  <variable name="X(10,18,206)" index="62680" value="-1.3819334626602829e-10"/>
  <variable name="X(10,18,207)" index="62681" value="1"/>
  <variable name="X(10,42,400)" index="63469" value="1"/>
  <variable name="X(11,32,235)" index="63899" value="1"/>
  <variable name="X(11,43,558)" index="64817" value="1"/>
  <variable name="X(12,6,306)" index="65160" value="-1.6822146025563194e-11"/>
  <variable name="X(12,6,396)" index="65250" value="-1.3463017373384131e-10"/>
  <variable name="X(12,6,414)" index="65268" value="1.0000000001514366"/>
  <variable name="X(12,16,239)" index="65688" value="1"/>
  <variable name="X(12,44,335)" index="66379" value="1"/>
  <variable name="X(13,32,259)" index="66898" value="0.99999999973958209"/>
  <variable name="X(13,32,260)" index="66899" value="2.2956961998872651e-10"/>
  <variable name="X(13,32,261)" index="66900" value="3.0848267027209683e-11"/>
  <variable name="X(13,45,509)" index="67743" value="1"/>
  <variable name="X(14,2,274)" index="68103" value="1"/>
  <variable name="X(14,46,431)" index="68855" value="1"/>
  <variable name="X(15,17,290)" index="69309" value="3.1093718823465343e-10"/>
  <variable name="X(15,17,291)" index="69310" value="-2.0729001939904282e-10"/>
  <variable name="X(15,17,292)" index="69311" value="0.9999999998963528"/>
  <variable name="X(15,47,100)" index="69714" value="1"/>
  <variable name="X(15,47,142)" index="69756" value="8.0612353494631932e-11"/>
  <variable name="X(15,47,206)" index="69820" value="-9.2128897510685515e-11"/>
  <variable name="X(15,47,454)" index="70068" value="1.1516544016053569e-11"/>
  <variable name="X(16,8,203)" index="70412" value="1.3819334626602842e-10"/>
  <variable name="X(16,8,239)" index="70448" value="1"/>
  <variable name="X(16,8,395)" index="70604" value="1.9530853254863845e-10"/>
  <variable name="X(16,8,397)" index="70606" value="-2.8302471334537603e-10"/>
  <variable name="X(16,8,416)" index="70625" value="-5.0477165469290828e-11"/>
  <variable name="X(16,12,306)" index="71110" value="-5.0466438076689582e-11"/>
  <variable name="X(16,12,396)" index="71200" value="-1.0097010604772981e-10"/>
  <variable name="X(16,12,414)" index="71218" value="1.0000000001514366"/>
  <variable name="X(16,18,5)" index="71404" value="1.0364716883561064e-10"/>
  <variable name="X(16,18,142)" index="71541" value="3.4546177430417677e-11"/>
  <variable name="X(16,18,400)" index="71799" value="1"/>
  <variable name="X(16,18,484)" index="71883" value="2.6486856507396985e-10"/>
  <variable name="X(16,18,563)" index="71962" value="-4.0306191133999819e-10"/>
  <variable name="X(16,22,78)" index="72072" value="1"/>
  <variable name="X(16,48,143)" index="72732" value="-3.4546177430417677e-11"/>
  <variable name="X(16,48,207)" index="72796" value="1"/>
  <variable name="X(16,48,291)" index="72880" value="-1.8425779502137139e-10"/>
  <variable name="X(16,48,383)" index="72972" value="2.1880397245178904e-10"/>
  <variable name="X(17,15,100)" index="73284" value="1"/>
  <variable name="X(17,15,142)" index="73326" value="4.6062721446471241e-11"/>
  <variable name="X(17,15,206)" index="73390" value="-9.2128897510685515e-11"/>
  <variable name="X(17,15,454)" index="73638" value="4.6066176064214275e-11"/>
  <variable name="X(17,18,291)" index="74070" value="-2.0729001939904282e-10"/>
  <variable name="X(17,18,335)" index="74114" value="1.00000000020729"/>
  <variable name="X(17,49,5)" index="74379" value="1.036472019322332e-10"/>
  <variable name="X(17,49,292)" index="74666" value="0.9999999998963528"/>
  <variable name="X(18,6,335)" index="75304" value="1"/>
  <variable name="X(18,10,400)" index="75964" value="1"/>
  <variable name="X(18,16,203)" index="76362" value="1.3819334626602852e-10"/>
  <variable name="X(18,16,207)" index="76366" value="1"/>
  <variable name="X(18,16,291)" index="76450" value="-1.3819334626602854e-10"/>
  <variable name="X(18,17,5)" index="76759" value="1.0364716883561061e-10"/>
  <variable name="X(18,17,100)" index="76854" value="1"/>
  <variable name="X(18,17,142)" index="76896" value="3.4546177430417677e-11"/>
  <variable name="X(18,17,206)" index="76960" value="-1.3819334626602829e-10"/>
  <variable name="X(18,50,484)" index="77833" value="1"/>
  <variable name="X(19,51,103)" index="78047" value="1.6828589183014449e-11"/>
  <variable name="X(19,51,145)" index="78089" value="1"/>
  <variable name="X(19,51,339)" index="78283" value="-1.6828589183014449e-11"/>
  <variable name="X(20,2,374)" index="78913" value="1"/>
  <variable name="X(20,2,379)" index="78918" value="2.8290785826624359e-10"/>
  <variable name="X(20,2,383)" index="78922" value="3.6923785724591636e-10"/>
  <variable name="X(20,2,385)" index="78924" value="-6.5214571551215995e-10"/>
  <variable name="X(20,52,274)" index="79408" value="1"/>
  <variable name="X(21,16,395)" index="80124" value="5.8594512849917016e-10"/>
  <variable name="X(21,16,396)" index="80125" value="-3.0292041515379419e-10"/>
  <variable name="X(21,16,397)" index="80126" value="-2.8302471334537603e-10"/>
  <variable name="X(21,16,400)" index="80129" value="1"/>
  <variable name="X(22,16,414)" index="80738" value="1.0000000001514366"/>
  <variable name="X(22,16,416)" index="80740" value="-1.5143654412441941e-10"/>
  <variable name="X(22,54,78)" index="80997" value="1"/>
  <variable name="X(23,2,431)" index="81945" value="1"/>
  <variable name="X(23,3,551)" index="82660" value="1"/>
  <variable name="X(23,4,465)" index="83169" value="1"/>
  <variable name="X(23,27,32)" index="83331" value="0.99999999908144432"/>
  <variable name="X(23,27,81)" index="83380" value="9.3397973413838476e-10"/>
  <variable name="X(23,27,417)" index="83716" value="-1.5424104977989152e-11"/>
  <variable name="X(23,28,55)" index="83949" value="1"/>
  <variable name="X(23,55,6)" index="84495" value="1"/>
  <variable name="X(23,55,147)" index="84636" value="2.7627231682597648e-10"/>
  <variable name="X(23,55,261)" index="84750" value="3.0848267027209683e-11"/>
  <variable name="X(23,55,385)" index="84874" value="-2.1738190517071998e-10"/>
  <variable name="X(23,55,416)" index="84905" value="-8.973867868246617e-11"/>
  <variable name="X(24,4,464)" index="85548" value="1"/>
  <variable name="X(24,27,460)" index="86139" value="1"/>
  <variable name="X(24,56,53)" index="86327" value="1"/>
  <variable name="X(25,57,81)" index="86950" value="1"/>
  <variable name="X(26,27,465)" index="87929" value="1"/>
  <variable name="X(26,58,32)" index="88091" value="1"/>
  <variable name="X(27,23,465)" index="89119" value="1"/>
  <variable name="X(27,24,489)" index="89738" value="1"/>
  <variable name="X(27,25,81)" index="89925" value="1"/>
  <variable name="X(27,26,32)" index="90471" value="1"/>
  <variable name="X(27,59,460)" index="91494" value="1"/>
  <variable name="X(28,23,551)" index="92180" value="1"/>
  <variable name="X(28,29,570)" index="92794" value="1"/>
  <variable name="X(28,30,539)" index="93358" value="1"/>
  <variable name="X(28,60,55)" index="93469" value="1"/>
  <variable name="X(29,28,539)" index="94548" value="1"/>
  <variable name="X(29,61,570)" index="95174" value="1"/>
  <variable name="X(30,28,570)" index="95769" value="1"/>
  <variable name="X(30,31,539)" index="96333" value="1"/>
  <variable name="X(30,32,509)" index="96898" value="1"/>
  <variable name="X(30,62,36)" index="97020" value="1"/>
  <variable name="X(31,30,570)" index="98149" value="1"/>
  <variable name="X(31,32,558)" index="98732" value="1"/>
  <variable name="X(31,63,539)" index="99308" value="1"/>
  <variable name="X(32,2,259)" index="99623" value="0.99999999973958209"/>
  <variable name="X(32,2,260)" index="99624" value="2.2956961998872651e-10"/>
  <variable name="X(32,2,261)" index="99625" value="3.0848267027209683e-11"/>
  <variable name="X(32,11,558)" index="100517" value="1"/>
  <variable name="X(32,13,509)" index="101063" value="1"/>
  <variable name="X(32,30,36)" index="101185" value="1"/>
  <variable name="X(32,31,235)" index="101979" value="1"/>
  <variable name="X(32,64,464)" index="102803" value="1"/>
  <variable name="C(4,8)" index="102945" value="0.9999999998963528"/>
  <variable name="C(5,8)" index="102947" value="1.0364716883561061e-10"/>
  <variable name="C(5,16)" index="102948" value="2.0729433767122122e-10"/>
  <variable name="C(5,18)" index="102949" value="3.1094150650683185e-10"/>
  <variable name="C(5,17)" index="102950" value="4.1458867534244244e-10"/>
  <variable name="C(6,4)" index="102952" value="1"/>
  <variable name="C(6,23)" index="102953" value="2"/>
  <variable name="C(7,4)" index="102955" value="-1.9563577328336604e-10"/>
  <variable name="C(9,4)" index="102963" value="1.9563577328336604e-10"/>
  <variable name="C(32,23)" index="103050" value="0.99999999908144432"/>
  <variable name="C(32,27)" index="103051" value="1.9999999981628886"/>
  <variable name="C(32,26)" index="103052" value="2.9999999981628886"/>
  <variable name="C(36,30)" index="103065" value="1"/>
  <variable name="C(53,3)" index="103130" value="2"/>
  <variable name="C(53,4)" index="103131" value="3"/>
  <variable name="C(53,24)" index="103132" value="4"/>
  <variable name="C(55,23)" index="103137" value="1"/>
  <variable name="C(55,28)" index="103138" value="2"/>
  <variable name="C(78,8)" index="103220" value="1.000000082740371e-09"/>
  <variable name="C(78,16)" index="103221" value="1.0000000010000001"/>
  <variable name="C(78,22)" index="103222" value="2.0000000010000001"/>
  <variable name="C(81,23)" index="103228" value="9.3397973413838476e-10"/>
  <variable name="C(81,27)" index="103229" value="1.8679594682767695e-09"/>
  <variable name="C(81,25)" index="103230" value="1.0000000018679596"/>
  <variable name="C(97,9)" index="103282" value="1"/>
  <variable name="C(100,6)" index="103294" value="1"/>
  <variable name="C(100,18)" index="103295" value="2"/>
  <variable name="C(100,17)" index="103296" value="3"/>
  <variable name="C(100,15)" index="103297" value="4"/>
  <variable name="C(103,8)" index="103306" value="3.7864641189941487e-11"/>
  <variable name="C(103,4)" index="103307" value="3.7864641189941487e-11"/>
  <variable name="C(103,2)" index="103308" value="5.0485767549043346e-11"/>
  <variable name="C(103,19)" index="103309" value="6.7314356732057794e-11"/>
  <variable name="C(132,8)" index="103445" value="1"/>
  <variable name="C(132,1)" index="103446" value="2"/>
  <variable name="C(142,8)" index="103481" value="3.4546177430417677e-11"/>
  <variable name="C(142,16)" index="103482" value="6.9092354860835353e-11"/>
  <variable name="C(142,18)" index="103483" value="1.0363853229125303e-10"/>
  <variable name="C(142,17)" index="103484" value="1.3818816433941373e-10"/>
  <variable name="C(142,15)" index="103485" value="1.8425088578588496e-10"/>
  <variable name="C(143,8)" index="103487" value="-3.4546177430417677e-11"/>
  <variable name="C(143,16)" index="103488" value="-6.9092354860835353e-11"/>
  <variable name="C(145,2)" index="103495" value="1"/>
  <variable name="C(145,19)" index="103496" value="2"/>
  <variable name="C(147,23)" index="103502" value="1.1050892673039059e-09"/>
  <variable name="C(178,5)" index="103621" value="2.5244286160587562e-11"/>
  <variable name="C(180,6)" index="103625" value="1.0000000001009797"/>
  <variable name="C(180,5)" index="103626" value="2.0000000001009797"/>
  <variable name="C(180,8)" index="103627" value="3.0000000001514695"/>
  <variable name="C(180,7)" index="103628" value="4.0000000002019593"/>
  <variable name="C(181,8)" index="103632" value="-8.8354437154163725e-11"/>
  <variable name="C(196,6)" index="103716" value="-1.0097966907096634e-10"/>
  <variable name="C(196,5)" index="103717" value="-2.5244286160587562e-11"/>
  <variable name="C(196,8)" index="103718" value="6.3110715401468897e-12"/>
  <variable name="C(203,18)" index="103756" value="1.3819334626602829e-10"/>
  <variable name="C(203,16)" index="103757" value="2.7638669253205678e-10"/>
  <variable name="C(203,8)" index="103758" value="4.1458003879808522e-10"/>
  <variable name="C(203,7)" index="103759" value="5.5277338506411356e-10"/>
  <variable name="C(205,9)" index="103765" value="1"/>
  <variable name="C(206,18)" index="103767" value="-1.3819334626602829e-10"/>
  <variable name="C(206,17)" index="103768" value="-2.7638669253205657e-10"/>
  <variable name="C(206,15)" index="103769" value="-3.6851559004274206e-10"/>
  <variable name="C(207,18)" index="103771" value="1"/>
  <variable name="C(207,16)" index="103772" value="2"/>
  <variable name="C(235,32)" index="103932" value="1"/>
  <variable name="C(239,16)" index="103946" value="1"/>
  <variable name="C(239,8)" index="103947" value="2"/>
  <variable name="C(239,4)" index="103948" value="3"/>
  <variable name="C(259,32)" index="104043" value="0.99999999973958209"/>
  <variable name="C(259,2)" index="104044" value="1.9999999994791642"/>
  <variable name="C(259,4)" index="104045" value="2.9999999992187463"/>
  <variable name="C(260,32)" index="104047" value="2.2956961998872651e-10"/>
  <variable name="C(260,2)" index="104048" value="1.7217721499154489e-10"/>
  <variable name="C(261,13)" index="104053" value="3.084826702720967e-11"/>
  <variable name="C(261,32)" index="104054" value="6.1696534054419353e-11"/>
  <variable name="C(261,2)" index="104055" value="9.2544801081629036e-11"/>
  <variable name="C(261,23)" index="104056" value="1.2339306810883873e-10"/>
  <variable name="C(274,2)" index="104118" value="1"/>
  <variable name="C(274,20)" index="104119" value="1.9999999999999991"/>
  <variable name="C(290,17)" index="104194" value="3.1093718823465343e-10"/>
  <variable name="C(290,18)" index="104195" value="3.1093718823465343e-10"/>
  <variable name="C(291,17)" index="104198" value="-2.0729001939904282e-10"/>
  <variable name="C(291,18)" index="104199" value="-4.1458003879808563e-10"/>
  <variable name="C(291,16)" index="104200" value="-5.5277338506411418e-10"/>
  <variable name="C(292,17)" index="104202" value="0.9999999998963528"/>
  <variable name="C(306,12)" index="104285" value="-5.0466438076689582e-11"/>
  <variable name="C(306,6)" index="104286" value="-6.7288584102252776e-11"/>
  <variable name="C(318,4)" index="104332" value="-1.5430451126369675e-10"/>
  <variable name="C(318,2)" index="104333" value="-2.0573763391417398e-10"/>
  <variable name="C(335,18)" index="104412" value="1.00000000020729"/>
  <variable name="C(335,6)" index="104413" value="2.0000000002072902"/>
  <variable name="C(335,12)" index="104414" value="3.0000000002072902"/>
  <variable name="C(339,4)" index="104432" value="-4.0388815978266098e-11"/>
  <variable name="C(339,2)" index="104433" value="-5.0485767549043346e-11"/>
  <variable name="C(339,19)" index="104434" value="-6.7314356732057794e-11"/>
  <variable name="C(374,2)" index="104609" value="1"/>
  <variable name="C(379,2)" index="104627" value="2.8290785826624359e-10"/>
  <variable name="C(379,4)" index="104628" value="3.7720733437245462e-10"/>
  <variable name="C(379,8)" index="104629" value="5.0294311249660616e-10"/>
  <variable name="C(383,2)" index="104653" value="3.6923785724591636e-10"/>
  <variable name="C(383,4)" index="104654" value="4.9231304048844708e-10"/>
  <variable name="C(383,8)" index="104655" value="6.5641191735536718e-10"/>
  <variable name="C(383,16)" index="104656" value="8.7521588980715617e-10"/>
  <variable name="C(385,2)" index="104665" value="-6.5214571551215995e-10"/>
  <variable name="C(385,23)" index="104666" value="-8.6952762068287993e-10"/>
  <variable name="C(395,16)" index="104706" value="5.8594512849917016e-10"/>
  <variable name="C(395,8)" index="104707" value="7.8125366104780864e-10"/>
  <variable name="C(395,4)" index="104708" value="1.0416715480637448e-09"/>
  <variable name="C(396,16)" index="104710" value="-3.0292041515379419e-10"/>
  <variable name="C(396,12)" index="104711" value="-4.0389052120152397e-10"/>
  <variable name="C(396,6)" index="104712" value="-5.3852069493536526e-10"/>
  <variable name="C(397,16)" index="104714" value="-2.8302471334537603e-10"/>
  <variable name="C(397,8)" index="104715" value="-5.6604942669075205e-10"/>
  <variable name="C(397,7)" index="104716" value="-7.5473256892100267e-10"/>
  <variable name="C(400,21)" index="104725" value="1"/>
  <variable name="C(400,16)" index="104726" value="2"/>
  <variable name="C(400,18)" index="104727" value="3"/>
  <variable name="C(400,10)" index="104728" value="4"/>
  <variable name="C(414,16)" index="104799" value="1.0000000001514366"/>
  <variable name="C(414,12)" index="104800" value="2.0000000003028733"/>
  <variable name="C(414,6)" index="104801" value="3.0000000004543099"/>
  <variable name="C(416,16)" index="104806" value="-1.5143654412441941e-10"/>
  <variable name="C(416,8)" index="104807" value="-2.0191370959371022e-10"/>
  <variable name="C(416,4)" index="104808" value="-2.6921603604739852e-10"/>
  <variable name="C(416,23)" index="104809" value="-3.5895471472986468e-10"/>
  <variable name="C(417,23)" index="104814" value="-6.1697962322454432e-11"/>
  <variable name="C(431,2)" index="104866" value="1"/>
  <variable name="C(431,14)" index="104867" value="2"/>
  <variable name="C(454,15)" index="104955" value="4.6066176064214275e-11"/>
  <variable name="C(460,24)" index="104977" value="3"/>
  <variable name="C(460,27)" index="104978" value="4"/>
  <variable name="C(464,24)" index="104993" value="1"/>
  <variable name="C(464,4)" index="104994" value="2"/>
  <variable name="C(464,2)" index="104995" value="3"/>
  <variable name="C(464,32)" index="104996" value="4"/>
  <variable name="C(465,27)" index="104998" value="1"/>
  <variable name="C(465,23)" index="104999" value="2"/>
  <variable name="C(465,4)" index="105000" value="3"/>
  <variable name="C(484,18)" index="105098" value="2.6486856507396985e-10"/>
  <variable name="C(501,5)" index="105158" value="1"/>
  <variable name="C(509,32)" index="105199" value="1"/>
  <variable name="C(509,13)" index="105200" value="2"/>
  <variable name="C(539,28)" index="105343" value="1"/>
  <variable name="C(539,30)" index="105344" value="2"/>
  <variable name="C(539,31)" index="105345" value="3"/>
  <variable name="C(551,23)" index="105397" value="1"/>
  <variable name="C(551,3)" index="105398" value="2.0000000020000002"/>
  <variable name="C(558,32)" index="105436" value="1"/>
  <variable name="C(558,11)" index="105437" value="2"/>
  <variable name="C(563,8)" index="105467" value="-1.2898368102637277e-09"/>
  <variable name="C(563,16)" index="105468" value="-1.6122879515511274e-09"/>
  <variable name="C(570,30)" index="105497" value="1"/>
  <variable name="C(570,28)" index="105498" value="2"/>
  <variable name="C(570,29)" index="105499" value="3"/>
 </variables>
</CPLEXSolution>
